c ENC2
p cnf 39 72
14 13 0
38 35 0
9 8 0
32 33 0
31 30 0
37 36 0
-14 -13 0
-38 -35 0
-9 -8 0
-32 -33 0
-31 -30 0
-37 -36 0
-27 14 0
27 13 0
-27 14 0
27 13 0
-6 38 0
6 35 0
-27 14 0
27 13 0
-6 38 0
6 35 0
-28 9 0
28 8 0
-14 -38 -9 -1 32 0
-14 -38 -9 1 33 0
-14 -38 -8 -15 32 0
-14 -38 -8 15 33 0
-14 -35 -9 -19 32 0
-14 -35 -9 19 33 0
-14 -35 -8 -25 32 0
-14 -35 -8 25 33 0
-13 -38 -9 -2 32 0
-13 -38 -9 2 33 0
-13 -38 -8 -29 32 0
-13 -38 -8 29 33 0
-13 -35 -9 -20 32 0
-13 -35 -9 20 33 0
-13 -35 -8 -7 32 0
-13 -35 -8 7 33 0
-14 -38 -9 -5 31 0
-14 -38 -9 5 30 0
-14 -38 -8 -18 31 0
-14 -38 -8 18 30 0
-14 -35 -9 -22 31 0
-14 -35 -9 22 30 0
-14 -35 -8 -26 31 0
-14 -35 -8 26 30 0
-13 -38 -9 -4 31 0
-13 -38 -9 4 30 0
-13 -38 -8 -34 31 0
-13 -38 -8 34 30 0
-13 -35 -9 -21 31 0
-13 -35 -9 21 30 0
-13 -35 -8 -10 31 0
-13 -35 -8 10 30 0
-14 -38 -9 -12 37 0
-14 -38 -9 12 36 0
-14 -38 -8 -23 37 0
-14 -38 -8 23 36 0
-14 -35 -9 -17 37 0
-14 -35 -9 17 36 0
-14 -35 -8 -24 37 0
-14 -35 -8 24 36 0
-13 -38 -9 -11 37 0
-13 -38 -9 11 36 0
-13 -38 -8 -39 37 0
-13 -38 -8 39 36 0
-13 -35 -9 -16 37 0
-13 -35 -9 16 36 0
-13 -35 -8 -3 37 0
-13 -35 -8 3 36 0
